<number of tasks>
20

<cycle time>
1000

<order strength>
0,526


<task times>
1 507
2 136
3 484
4 545
5 525
6 209
7 338
8 152
9 568
10 21
11 146
12 464
13 152
14 62
15 176
16 60
17 456
18 260
19 52
20 466

<precedence relations>
1,10
2,5
3,4
4,10
5,6
5,7
5,8
5,9
6,10
7,10
8,11
9,10
9,12
10,13
10,14
10,15
10,16
10,17
12,18
13,20
14,18
16,19

<end>
